\ Model MTZ_MODEL
\ LP format - for model browsing. Use MPS format to capture full model detail.
Minimize
  p[0,1] + p[0,2] + p[0,3] + p[0,4] + p[0,5] + p[1,0] + p[1,2] + p[1,3]
   + p[1,4] + p[1,5] + p[2,0] + p[2,1] + p[2,3] + p[2,4] + p[2,5] + p[3,0]
   + p[3,1] + p[3,2] + p[3,4] + p[3,5] + p[4,0] + p[4,1] + p[4,2] + p[4,3]
   + p[4,5] + p[5,0] + p[5,1] + p[5,2] + p[5,3] + p[5,4] + dc[0] + dc[1]
   + dc[2] + dc[3] + dc[4] + dc[5] + 0 difc[0,0] + 0 difc[0,1]
   + 0 difc[1,0] + 0 difc[1,1] + 0 difc[2,0] + 0 difc[2,1] + 0 difc[3,0]
   + 0 difc[3,1] + 0 difc[4,0] + 0 difc[4,1] + 0 difc[5,0] + 0 difc[5,1]
Subject To
 p2: p[0,1] - 14.32377968061953 z[0,1] >= 0
 p3: p[0,1] - 18.76481914008428 z[0,1] - dcc[0,1] >= -18.76481914008428
 R2: dcc[0,1] <= 18.76481914008428
 R3: x[0,1,0] - x[1,0,0] + dif[0,1,0] >= 0
 R4: - x[0,1,0] + x[1,0,0] + dif[0,1,0] >= 0
 R5: x[0,1,1] - x[1,0,1] + dif[0,1,1] >= 0
 R6: - x[0,1,1] + x[1,0,1] + dif[0,1,1] >= 0
 p2: p[0,2] - 25.48326471738185 z[0,2] >= 0
 p3: p[0,2] - 26.52916444864552 z[0,2] - dcc[0,2] >= -26.52916444864552
 R9: dcc[0,2] <= 26.52916444864552
 R10: x[0,1,0] - x[2,0,0] + dif[0,2,0] >= 0
 R11: - x[0,1,0] + x[2,0,0] + dif[0,2,0] >= 0
 R12: x[0,1,1] - x[2,0,1] + dif[0,2,1] >= 0
 R13: - x[0,1,1] + x[2,0,1] + dif[0,2,1] >= 0
 p2: p[0,3] - 78.48802827261973 z[0,3] >= 0
 p3: p[0,3] - 84.44146961770997 z[0,3] - dcc[0,3] >= -84.44146961770997
 R16: dcc[0,3] <= 84.44146961770997
 R17: x[0,1,0] - x[3,0,0] + dif[0,3,0] >= 0
 R18: - x[0,1,0] + x[3,0,0] + dif[0,3,0] >= 0
 R19: x[0,1,1] - x[3,0,1] + dif[0,3,1] >= 0
 R20: - x[0,1,1] + x[3,0,1] + dif[0,3,1] >= 0
 p2: p[0,4] - 35.61686321689722 z[0,4] >= 0
 p3: p[0,4] - 38.97677434869438 z[0,4] - dcc[0,4] >= -38.97677434869438
 R23: dcc[0,4] <= 38.97677434869438
 R24: x[0,1,0] - x[4,0,0] + dif[0,4,0] >= 0
 R25: - x[0,1,0] + x[4,0,0] + dif[0,4,0] >= 0
 R26: x[0,1,1] - x[4,0,1] + dif[0,4,1] >= 0
 R27: - x[0,1,1] + x[4,0,1] + dif[0,4,1] >= 0
 p2: p[0,5] - 49.85977672028746 z[0,5] >= 0
 p3: p[0,5] - 53.58921243458221 z[0,5] - dcc[0,5] >= -53.58921243458221
 R30: dcc[0,5] <= 53.58921243458221
 R31: x[0,1,0] - x[5,0,0] + dif[0,5,0] >= 0
 R32: - x[0,1,0] + x[5,0,0] + dif[0,5,0] >= 0
 R33: x[0,1,1] - x[5,0,1] + dif[0,5,1] >= 0
 R34: - x[0,1,1] + x[5,0,1] + dif[0,5,1] >= 0
 p2: p[1,0] - 14.32377968061953 z[1,0] >= 0
 p3: p[1,0] - 18.76481914008428 z[1,0] - dcc[1,0] >= -18.76481914008428
 R37: dcc[1,0] <= 18.76481914008428
 R38: - x[0,0,0] + x[1,1,0] + dif[1,0,0] >= 0
 R39: x[0,0,0] - x[1,1,0] + dif[1,0,0] >= 0
 R40: - x[0,0,1] + x[1,1,1] + dif[1,0,1] >= 0
 R41: x[0,0,1] - x[1,1,1] + dif[1,0,1] >= 0
 p2: p[1,2] - 38.40562751252403 z[1,2] >= 0
 p3: p[1,2] - 43.37070064376052 z[1,2] - dcc[1,2] >= -43.37070064376052
 R44: dcc[1,2] <= 43.37070064376052
 R45: x[1,1,0] - x[2,0,0] + dif[1,2,0] >= 0
 R46: - x[1,1,0] + x[2,0,0] + dif[1,2,0] >= 0
 R47: x[1,1,1] - x[2,0,1] + dif[1,2,1] >= 0
 R48: - x[1,1,1] + x[2,0,1] + dif[1,2,1] >= 0
 p2: p[1,3] - 71.10473366822977 z[1,3] >= 0
 p3: p[1,3] - 77.03643645954948 z[1,3] - dcc[1,3] >= -77.03643645954948
 R51: dcc[1,3] <= 77.03643645954948
 R52: x[1,1,0] - x[3,0,0] + dif[1,3,0] >= 0
 R53: - x[1,1,0] + x[3,0,0] + dif[1,3,0] >= 0
 R54: x[1,1,1] - x[3,0,1] + dif[1,3,1] >= 0
 R55: - x[1,1,1] + x[3,0,1] + dif[1,3,1] >= 0
 p2: p[1,4] - 19.73929394614382 z[1,4] >= 0
 p3: p[1,4] - 23.7480152946343 z[1,4] - dcc[1,4] >= -23.7480152946343
 R58: dcc[1,4] <= 23.7480152946343
 R59: x[1,1,0] - x[4,0,0] + dif[1,4,0] >= 0
 R60: - x[1,1,0] + x[4,0,0] + dif[1,4,0] >= 0
 R61: x[1,1,1] - x[4,0,1] + dif[1,4,1] >= 0
 R62: - x[1,1,1] + x[4,0,1] + dif[1,4,1] >= 0
 p2: p[1,5] - 39.16684569177039 z[1,5] >= 0
 p3: p[1,5] - 42.10456521498428 z[1,5] - dcc[1,5] >= -42.10456521498428
 R65: dcc[1,5] <= 42.10456521498428
 R66: x[1,1,0] - x[5,0,0] + dif[1,5,0] >= 0
 R67: - x[1,1,0] + x[5,0,0] + dif[1,5,0] >= 0
 R68: x[1,1,1] - x[5,0,1] + dif[1,5,1] >= 0
 R69: - x[1,1,1] + x[5,0,1] + dif[1,5,1] >= 0
 p2: p[2,0] - 25.48326471738185 z[2,0] >= 0
 p3: p[2,0] - 26.52916444864552 z[2,0] - dcc[2,0] >= -26.52916444864552
 R72: dcc[2,0] <= 26.52916444864552
 R73: - x[0,0,0] + x[2,1,0] + dif[2,0,0] >= 0
 R74: x[0,0,0] - x[2,1,0] + dif[2,0,0] >= 0
 R75: - x[0,0,1] + x[2,1,1] + dif[2,0,1] >= 0
 R76: x[0,0,1] - x[2,1,1] + dif[2,0,1] >= 0
 p2: p[2,1] - 38.40562751252403 z[2,1] >= 0
 p3: p[2,1] - 43.37070064376052 z[2,1] - dcc[2,1] >= -43.37070064376052
 R79: dcc[2,1] <= 43.37070064376052
 R80: - x[1,0,0] + x[2,1,0] + dif[2,1,0] >= 0
 R81: x[1,0,0] - x[2,1,0] + dif[2,1,0] >= 0
 R82: - x[1,0,1] + x[2,1,1] + dif[2,1,1] >= 0
 R83: x[1,0,1] - x[2,1,1] + dif[2,1,1] >= 0
 p2: p[2,3] - 82.75349104938562 z[2,3] >= 0
 p3: p[2,3] - 87.35355801868015 z[2,3] - dcc[2,3] >= -87.35355801868015
 R86: dcc[2,3] <= 87.35355801868015
 R87: x[2,1,0] - x[3,0,0] + dif[2,3,0] >= 0
 R88: - x[2,1,0] + x[3,0,0] + dif[2,3,0] >= 0
 R89: x[2,1,1] - x[3,0,1] + dif[2,3,1] >= 0
 R90: - x[2,1,1] + x[3,0,1] + dif[2,3,1] >= 0
 p2: p[2,4] - 56.44756527797866 z[2,4] >= 0
 p3: p[2,4] - 59.28471333935511 z[2,4] - dcc[2,4] >= -59.28471333935511
 R93: dcc[2,4] <= 59.28471333935511
 R94: x[2,1,0] - x[4,0,0] + dif[2,4,0] >= 0
 R95: - x[2,1,0] + x[4,0,0] + dif[2,4,0] >= 0
 R96: x[2,1,1] - x[4,0,1] + dif[2,4,1] >= 0
 R97: - x[2,1,1] + x[4,0,1] + dif[2,4,1] >= 0
 p2: p[2,5] - 63.12503361737705 z[2,5] >= 0
 p3: p[2,5] - 66.61261576633143 z[2,5] - dcc[2,5] >= -66.61261576633143
 R100: dcc[2,5] <= 66.61261576633143
 R101: x[2,1,0] - x[5,0,0] + dif[2,5,0] >= 0
 R102: - x[2,1,0] + x[5,0,0] + dif[2,5,0] >= 0
 R103: x[2,1,1] - x[5,0,1] + dif[2,5,1] >= 0
 R104: - x[2,1,1] + x[5,0,1] + dif[2,5,1] >= 0
 p2: p[3,0] - 78.48802827261973 z[3,0] >= 0
 p3: p[3,0] - 84.44146961770997 z[3,0] - dcc[3,0] >= -84.44146961770997
 R107: dcc[3,0] <= 84.44146961770997
 R108: - x[0,0,0] + x[3,1,0] + dif[3,0,0] >= 0
 R109: x[0,0,0] - x[3,1,0] + dif[3,0,0] >= 0
 R110: - x[0,0,1] + x[3,1,1] + dif[3,0,1] >= 0
 R111: x[0,0,1] - x[3,1,1] + dif[3,0,1] >= 0
 p2: p[3,1] - 71.10473366822977 z[3,1] >= 0
 p3: p[3,1] - 77.03643645954948 z[3,1] - dcc[3,1] >= -77.03643645954948
 R114: dcc[3,1] <= 77.03643645954948
 R115: - x[1,0,0] + x[3,1,0] + dif[3,1,0] >= 0
 R116: x[1,0,0] - x[3,1,0] + dif[3,1,0] >= 0
 R117: - x[1,0,1] + x[3,1,1] + dif[3,1,1] >= 0
 R118: x[1,0,1] - x[3,1,1] + dif[3,1,1] >= 0
 p2: p[3,2] - 82.75349104938562 z[3,2] >= 0
 p3: p[3,2] - 87.35355801868015 z[3,2] - dcc[3,2] >= -87.35355801868015
 R121: dcc[3,2] <= 87.35355801868015
 R122: - x[2,0,0] + x[3,1,0] + dif[3,2,0] >= 0
 R123: x[2,0,0] - x[3,1,0] + dif[3,2,0] >= 0
 R124: - x[2,0,1] + x[3,1,1] + dif[3,2,1] >= 0
 R125: x[2,0,1] - x[3,1,1] + dif[3,2,1] >= 0
 p2: p[3,4] - 56.59626043103514 z[3,4] >= 0
 p3: p[3,4] - 63.30698911066668 z[3,4] - dcc[3,4] >= -63.30698911066668
 R128: dcc[3,4] <= 63.30698911066668
 R129: x[3,1,0] - x[4,0,0] + dif[3,4,0] >= 0
 R130: - x[3,1,0] + x[4,0,0] + dif[3,4,0] >= 0
 R131: x[3,1,1] - x[4,0,1] + dif[3,4,1] >= 0
 R132: - x[3,1,1] + x[4,0,1] + dif[3,4,1] >= 0
 p2: p[3,5] - 32.13701808583276 z[3,5] >= 0
 p3: p[3,5] - 40.02012424692691 z[3,5] - dcc[3,5] >= -40.02012424692691
 R135: dcc[3,5] <= 40.02012424692691
 R136: x[3,1,0] - x[5,0,0] + dif[3,5,0] >= 0
 R137: - x[3,1,0] + x[5,0,0] + dif[3,5,0] >= 0
 R138: x[3,1,1] - x[5,0,1] + dif[3,5,1] >= 0
 R139: - x[3,1,1] + x[5,0,1] + dif[3,5,1] >= 0
 p2: p[4,0] - 35.61686321689722 z[4,0] >= 0
 p3: p[4,0] - 38.97677434869438 z[4,0] - dcc[4,0] >= -38.97677434869438
 R142: dcc[4,0] <= 38.97677434869438
 R143: - x[0,0,0] + x[4,1,0] + dif[4,0,0] >= 0
 R144: x[0,0,0] - x[4,1,0] + dif[4,0,0] >= 0
 R145: - x[0,0,1] + x[4,1,1] + dif[4,0,1] >= 0
 R146: x[0,0,1] - x[4,1,1] + dif[4,0,1] >= 0
 p2: p[4,1] - 19.73929394614382 z[4,1] >= 0
 p3: p[4,1] - 23.7480152946343 z[4,1] - dcc[4,1] >= -23.7480152946343
 R149: dcc[4,1] <= 23.7480152946343
 R150: - x[1,0,0] + x[4,1,0] + dif[4,1,0] >= 0
 R151: x[1,0,0] - x[4,1,0] + dif[4,1,0] >= 0
 R152: - x[1,0,1] + x[4,1,1] + dif[4,1,1] >= 0
 R153: x[1,0,1] - x[4,1,1] + dif[4,1,1] >= 0
 p2: p[4,2] - 56.44756527797866 z[4,2] >= 0
 p3: p[4,2] - 59.28471333935511 z[4,2] - dcc[4,2] >= -59.28471333935511
 R156: dcc[4,2] <= 59.28471333935511
 R157: - x[2,0,0] + x[4,1,0] + dif[4,2,0] >= 0
 R158: x[2,0,0] - x[4,1,0] + dif[4,2,0] >= 0
 R159: - x[2,0,1] + x[4,1,1] + dif[4,2,1] >= 0
 R160: x[2,0,1] - x[4,1,1] + dif[4,2,1] >= 0
 p2: p[4,3] - 56.59626043103514 z[4,3] >= 0
 p3: p[4,3] - 63.30698911066668 z[4,3] - dcc[4,3] >= -63.30698911066668
 R163: dcc[4,3] <= 63.30698911066668
 R164: - x[3,0,0] + x[4,1,0] + dif[4,3,0] >= 0
 R165: x[3,0,0] - x[4,1,0] + dif[4,3,0] >= 0
 R166: - x[3,0,1] + x[4,1,1] + dif[4,3,1] >= 0
 R167: x[3,0,1] - x[4,1,1] + dif[4,3,1] >= 0
 p2: p[4,5] - 21.48258488738833 z[4,5] >= 0
 p3: p[4,5] - 26.6584758901678 z[4,5] - dcc[4,5] >= -26.6584758901678
 R170: dcc[4,5] <= 26.6584758901678
 R171: x[4,1,0] - x[5,0,0] + dif[4,5,0] >= 0
 R172: - x[4,1,0] + x[5,0,0] + dif[4,5,0] >= 0
 R173: x[4,1,1] - x[5,0,1] + dif[4,5,1] >= 0
 R174: - x[4,1,1] + x[5,0,1] + dif[4,5,1] >= 0
 p2: p[5,0] - 49.85977672028746 z[5,0] >= 0
 p3: p[5,0] - 53.58921243458221 z[5,0] - dcc[5,0] >= -53.58921243458221
 R177: dcc[5,0] <= 53.58921243458221
 R178: - x[0,0,0] + x[5,1,0] + dif[5,0,0] >= 0
 R179: x[0,0,0] - x[5,1,0] + dif[5,0,0] >= 0
 R180: - x[0,0,1] + x[5,1,1] + dif[5,0,1] >= 0
 R181: x[0,0,1] - x[5,1,1] + dif[5,0,1] >= 0
 p2: p[5,1] - 39.16684569177039 z[5,1] >= 0
 p3: p[5,1] - 42.10456521498428 z[5,1] - dcc[5,1] >= -42.10456521498428
 R184: dcc[5,1] <= 42.10456521498428
 R185: - x[1,0,0] + x[5,1,0] + dif[5,1,0] >= 0
 R186: x[1,0,0] - x[5,1,0] + dif[5,1,0] >= 0
 R187: - x[1,0,1] + x[5,1,1] + dif[5,1,1] >= 0
 R188: x[1,0,1] - x[5,1,1] + dif[5,1,1] >= 0
 p2: p[5,2] - 63.12503361737705 z[5,2] >= 0
 p3: p[5,2] - 66.61261576633143 z[5,2] - dcc[5,2] >= -66.61261576633143
 R191: dcc[5,2] <= 66.61261576633143
 R192: - x[2,0,0] + x[5,1,0] + dif[5,2,0] >= 0
 R193: x[2,0,0] - x[5,1,0] + dif[5,2,0] >= 0
 R194: - x[2,0,1] + x[5,1,1] + dif[5,2,1] >= 0
 R195: x[2,0,1] - x[5,1,1] + dif[5,2,1] >= 0
 p2: p[5,3] - 32.13701808583276 z[5,3] >= 0
 p3: p[5,3] - 40.02012424692691 z[5,3] - dcc[5,3] >= -40.02012424692691
 R198: dcc[5,3] <= 40.02012424692691
 R199: - x[3,0,0] + x[5,1,0] + dif[5,3,0] >= 0
 R200: x[3,0,0] - x[5,1,0] + dif[5,3,0] >= 0
 R201: - x[3,0,1] + x[5,1,1] + dif[5,3,1] >= 0
 R202: x[3,0,1] - x[5,1,1] + dif[5,3,1] >= 0
 p2: p[5,4] - 21.48258488738833 z[5,4] >= 0
 p3: p[5,4] - 26.6584758901678 z[5,4] - dcc[5,4] >= -26.6584758901678
 R205: dcc[5,4] <= 26.6584758901678
 R206: - x[4,0,0] + x[5,1,0] + dif[5,4,0] >= 0
 R207: x[4,0,0] - x[5,1,0] + dif[5,4,0] >= 0
 R208: - x[4,0,1] + x[5,1,1] + dif[5,4,1] >= 0
 R209: x[4,0,1] - x[5,1,1] + dif[5,4,1] >= 0
 R210: z[0,1] + z[0,2] + z[0,3] + z[0,4] + z[0,5] = 1
 R211: z[1,0] + z[1,2] + z[1,3] + z[1,4] + z[1,5] = 1
 R212: z[2,0] + z[2,1] + z[2,3] + z[2,4] + z[2,5] = 1
 R213: z[3,0] + z[3,1] + z[3,2] + z[3,4] + z[3,5] = 1
 R214: z[4,0] + z[4,1] + z[4,2] + z[4,3] + z[4,5] = 1
 R215: z[5,0] + z[5,1] + z[5,2] + z[5,3] + z[5,4] = 1
 R216: z[1,0] + z[2,0] + z[3,0] + z[4,0] + z[5,0] = 1
 R217: z[0,1] + z[2,1] + z[3,1] + z[4,1] + z[5,1] = 1
 R218: z[0,2] + z[1,2] + z[3,2] + z[4,2] + z[5,2] = 1
 R219: z[0,3] + z[1,3] + z[2,3] + z[4,3] + z[5,3] = 1
 R220: z[0,4] + z[1,4] + z[2,4] + z[3,4] + z[5,4] = 1
 R221: z[0,5] + z[1,5] + z[2,5] + z[3,5] + z[4,5] = 1
 rest7: z[0,1] + z[1,0] <= 1
 rest7: z[0,2] + z[2,0] <= 1
 rest7: z[0,3] + z[3,0] <= 1
 rest7: z[0,4] + z[4,0] <= 1
 rest7: z[0,5] + z[5,0] <= 1
 rest7: z[0,1] + z[1,0] <= 1
 rest7: z[1,2] + z[2,1] <= 1
 rest7: z[1,3] + z[3,1] <= 1
 rest7: z[1,4] + z[4,1] <= 1
 rest7: z[1,5] + z[5,1] <= 1
 rest7: z[0,2] + z[2,0] <= 1
 rest7: z[1,2] + z[2,1] <= 1
 rest7: z[2,3] + z[3,2] <= 1
 rest7: z[2,4] + z[4,2] <= 1
 rest7: z[2,5] + z[5,2] <= 1
 rest7: z[0,3] + z[3,0] <= 1
 rest7: z[1,3] + z[3,1] <= 1
 rest7: z[2,3] + z[3,2] <= 1
 rest7: z[3,4] + z[4,3] <= 1
 rest7: z[3,5] + z[5,3] <= 1
 rest7: z[0,4] + z[4,0] <= 1
 rest7: z[1,4] + z[4,1] <= 1
 rest7: z[2,4] + z[4,2] <= 1
 rest7: z[3,4] + z[4,3] <= 1
 rest7: z[4,5] + z[5,4] <= 1
 rest7: z[0,5] + z[5,0] <= 1
 rest7: z[1,5] + z[5,1] <= 1
 rest7: z[2,5] + z[5,2] <= 1
 rest7: z[3,5] + z[5,3] <= 1
 rest7: z[4,5] + z[5,4] <= 1
 R252: 6 z[1,2] + sc[1] - sc[2] <= 5
 R253: 6 z[1,3] + sc[1] - sc[3] <= 5
 R254: 6 z[1,4] + sc[1] - sc[4] <= 5
 R255: 6 z[1,5] + sc[1] - sc[5] <= 5
 R256: 6 z[2,1] - sc[1] + sc[2] <= 5
 R257: 6 z[2,3] + sc[2] - sc[3] <= 5
 R258: 6 z[2,4] + sc[2] - sc[4] <= 5
 R259: 6 z[2,5] + sc[2] - sc[5] <= 5
 R260: 6 z[3,1] - sc[1] + sc[3] <= 5
 R261: 6 z[3,2] - sc[2] + sc[3] <= 5
 R262: 6 z[3,4] + sc[3] - sc[4] <= 5
 R263: 6 z[3,5] + sc[3] - sc[5] <= 5
 R264: 6 z[4,1] - sc[1] + sc[4] <= 5
 R265: 6 z[4,2] - sc[2] + sc[4] <= 5
 R266: 6 z[4,3] - sc[3] + sc[4] <= 5
 R267: 6 z[4,5] + sc[4] - sc[5] <= 5
 R268: 6 z[5,1] - sc[1] + sc[5] <= 5
 R269: 6 z[5,2] - sc[2] + sc[5] <= 5
 R270: 6 z[5,3] - sc[3] + sc[5] <= 5
 R271: 6 z[5,4] - sc[4] + sc[5] <= 5
 rest10: sc[0] = 0
 rest11: sc[1] >= 1
 rest11: sc[2] >= 1
 rest11: sc[3] >= 1
 rest11: sc[4] >= 1
 rest11: sc[5] >= 1
 u0: landa[0,0] - landa[0,1] + min[0] - max[0] = 0
 u1: min[0] + max[0] = 1
 u2: u[0] + max[0] <= 1
 u3: - u[0] + min[0] <= 0
 R282: dc[0] = 1.729668768478949
 R283: landa[0,0] - sublanda[0,0,1] - 2 s[0,0,0] >= -1
 R284: landa[0,0] - sublanda[0,0,1] + 2 s[0,0,0] <= 3
 R285: sublanda[0,0,0] - s[0,0,0] <= 0
 R286: sublanda[0,0,1] - s[0,0,0] <= 0
 R287: s[0,0,0] = 1
 R288: sublanda[0,0,0] + sublanda[0,0,1] = 1
 seg1: x[0,0,0] - 10.80869851663963 sublanda[0,0,0]
   - 9.082188085032028 sublanda[0,0,1] = 0
 seg1: x[0,0,1] - 39.81200059472237 sublanda[0,0,0]
   - 39.91647919636705 sublanda[0,0,1] = 0
 R291: landa[0,1] - sublanda[0,1,1] - 2 s[0,1,0] >= -1
 R292: landa[0,1] - sublanda[0,1,1] + 2 s[0,1,0] <= 3
 R293: sublanda[0,1,0] - s[0,1,0] <= 0
 R294: sublanda[0,1,1] - s[0,1,0] <= 0
 R295: s[0,1,0] = 1
 R296: sublanda[0,1,0] + sublanda[0,1,1] = 1
 seg1: x[0,1,0] - 10.80869851663963 sublanda[0,1,0]
   - 9.082188085032028 sublanda[0,1,1] = 0
 seg1: x[0,1,1] - 39.81200059472237 sublanda[0,1,0]
   - 39.91647919636705 sublanda[0,1,1] = 0
 u0: landa[1,0] - landa[1,1] + min[1] - max[1] = 0
 u1: min[1] + max[1] = 1
 u2: u[1] + max[1] <= 1
 u3: - u[1] + min[1] <= 0
 R303: dc[1] = 4.465111353334637
 R304: landa[1,0] - sublanda[1,0,1] - 2 s[1,0,0] >= -1
 R305: landa[1,0] - sublanda[1,0,1] + 2 s[1,0,0] <= 3
 R306: sublanda[1,0,0] - s[1,0,0] <= 0
 R307: sublanda[1,0,1] - s[1,0,0] <= 0
 R308: s[1,0,0] = 1
 R309: sublanda[1,0,0] + sublanda[1,0,1] = 1
 seg1: x[1,0,0] - 18.81111102861891 sublanda[1,0,0]
   - 19.33810881889596 sublanda[1,0,1] = 0
 seg1: x[1,0,1] - 23.87071664927001 sublanda[1,0,0]
   - 28.30461930119201 sublanda[1,0,1] = 0
 R312: landa[1,1] - sublanda[1,1,1] - 2 s[1,1,0] >= -1
 R313: landa[1,1] - sublanda[1,1,1] + 2 s[1,1,0] <= 3
 R314: sublanda[1,1,0] - s[1,1,0] <= 0
 R315: sublanda[1,1,1] - s[1,1,0] <= 0
 R316: s[1,1,0] = 1
 R317: sublanda[1,1,0] + sublanda[1,1,1] = 1
 seg1: x[1,1,0] - 18.81111102861891 sublanda[1,1,0]
   - 19.33810881889596 sublanda[1,1,1] = 0
 seg1: x[1,1,1] - 23.87071664927001 sublanda[1,1,0]
   - 28.30461930119201 sublanda[1,1,1] = 0
 u0: landa[2,0] - landa[2,1] + min[2] - max[2] = 0
 u1: min[2] + max[2] = 3
 u2: 3 u[2] + max[2] <= 3
 u3: - 3 u[2] + min[2] <= 0
 R324: dc[2] = 2.152424913708342
 R325: landa[2,0] - sublanda[2,0,1] - 4 s[2,0,0] >= -3
 R326: landa[2,0] - sublanda[2,0,1] + 4 s[2,0,0] <= 5
 R327: landa[2,0] - sublanda[2,0,2] - 4 s[2,0,1] >= -2
 R328: landa[2,0] - sublanda[2,0,2] + 4 s[2,0,1] <= 6
 R329: landa[2,0] - sublanda[2,0,3] - 4 s[2,0,2] >= -1
 R330: landa[2,0] - sublanda[2,0,3] + 4 s[2,0,2] <= 7
 R331: sublanda[2,0,0] - s[2,0,0] <= 0
 R332: sublanda[2,0,3] - s[2,0,2] <= 0
 R333: sublanda[2,0,1] - s[2,0,0] - s[2,0,1] <= 0
 R334: sublanda[2,0,2] - s[2,0,1] - s[2,0,2] <= 0
 R335: s[2,0,0] + s[2,0,1] + s[2,0,2] = 1
 R336: sublanda[2,0,0] + sublanda[2,0,1] + sublanda[2,0,2]
   + sublanda[2,0,3] = 1
 seg1: x[2,0,0] - 9.384371820316169 sublanda[2,0,0]
   - 9.271392802985112 sublanda[2,0,1] - 9.95400961687846 sublanda[2,0,2]
   - 10.27757790073089 sublanda[2,0,3] = 0
 seg1: x[2,0,1] - 65.39795218452628 sublanda[2,0,0]
   - 66.10647605567895 sublanda[2,0,1] - 66.32739373206624 sublanda[2,0,2]
   - 65.68702360469064 sublanda[2,0,3] = 0
 R339: landa[2,1] - sublanda[2,1,1] - 4 s[2,1,0] >= -3
 R340: landa[2,1] - sublanda[2,1,1] + 4 s[2,1,0] <= 5
 R341: landa[2,1] - sublanda[2,1,2] - 4 s[2,1,1] >= -2
 R342: landa[2,1] - sublanda[2,1,2] + 4 s[2,1,1] <= 6
 R343: landa[2,1] - sublanda[2,1,3] - 4 s[2,1,2] >= -1
 R344: landa[2,1] - sublanda[2,1,3] + 4 s[2,1,2] <= 7
 R345: sublanda[2,1,0] - s[2,1,0] <= 0
 R346: sublanda[2,1,3] - s[2,1,2] <= 0
 R347: sublanda[2,1,1] - s[2,1,0] - s[2,1,1] <= 0
 R348: sublanda[2,1,2] - s[2,1,1] - s[2,1,2] <= 0
 R349: s[2,1,0] + s[2,1,1] + s[2,1,2] = 1
 R350: sublanda[2,1,0] + sublanda[2,1,1] + sublanda[2,1,2]
   + sublanda[2,1,3] = 1
 seg1: x[2,1,0] - 9.384371820316169 sublanda[2,1,0]
   - 9.271392802985112 sublanda[2,1,1] - 9.95400961687846 sublanda[2,1,2]
   - 10.27757790073089 sublanda[2,1,3] = 0
 seg1: x[2,1,1] - 65.39795218452628 sublanda[2,1,0]
   - 66.10647605567895 sublanda[2,1,1] - 66.32739373206624 sublanda[2,1,2]
   - 65.68702360469064 sublanda[2,1,3] = 0
 u0: landa[3,0] - landa[3,1] + min[3] - max[3] = 0
 u1: min[3] + max[3] = 3
 u2: 3 u[3] + max[3] <= 3
 u3: - 3 u[3] + min[3] <= 0
 R357: dc[3] = 8.978417379447679
 R358: landa[3,0] - sublanda[3,0,1] - 4 s[3,0,0] >= -3
 R359: landa[3,0] - sublanda[3,0,1] + 4 s[3,0,0] <= 5
 R360: landa[3,0] - sublanda[3,0,2] - 4 s[3,0,1] >= -2
 R361: landa[3,0] - sublanda[3,0,2] + 4 s[3,0,1] <= 6
 R362: landa[3,0] - sublanda[3,0,3] - 4 s[3,0,2] >= -1
 R363: landa[3,0] - sublanda[3,0,3] + 4 s[3,0,2] <= 7
 R364: sublanda[3,0,0] - s[3,0,0] <= 0
 R365: sublanda[3,0,3] - s[3,0,2] <= 0
 R366: sublanda[3,0,1] - s[3,0,0] - s[3,0,1] <= 0
 R367: sublanda[3,0,2] - s[3,0,1] - s[3,0,2] <= 0
 R368: s[3,0,0] + s[3,0,1] + s[3,0,2] = 1
 R369: sublanda[3,0,0] + sublanda[3,0,1] + sublanda[3,0,2]
   + sublanda[3,0,3] = 1
 seg1: x[3,0,0] - 91.72843708990159 sublanda[3,0,0]
   - 89.28655452932583 sublanda[3,0,1] - 90.61952682882307 sublanda[3,0,2]
   - 93.4726352091137 sublanda[3,0,3] = 0
 seg1: x[3,0,1] - 39.34526001366195 sublanda[3,0,0]
   - 41.07560566579725 sublanda[3,0,1] - 43.7551711836155 sublanda[3,0,2]
   - 42.85147926386469 sublanda[3,0,3] = 0
 R372: landa[3,1] - sublanda[3,1,1] - 4 s[3,1,0] >= -3
 R373: landa[3,1] - sublanda[3,1,1] + 4 s[3,1,0] <= 5
 R374: landa[3,1] - sublanda[3,1,2] - 4 s[3,1,1] >= -2
 R375: landa[3,1] - sublanda[3,1,2] + 4 s[3,1,1] <= 6
 R376: landa[3,1] - sublanda[3,1,3] - 4 s[3,1,2] >= -1
 R377: landa[3,1] - sublanda[3,1,3] + 4 s[3,1,2] <= 7
 R378: sublanda[3,1,0] - s[3,1,0] <= 0
 R379: sublanda[3,1,3] - s[3,1,2] <= 0
 R380: sublanda[3,1,1] - s[3,1,0] - s[3,1,1] <= 0
 R381: sublanda[3,1,2] - s[3,1,1] - s[3,1,2] <= 0
 R382: s[3,1,0] + s[3,1,1] + s[3,1,2] = 1
 R383: sublanda[3,1,0] + sublanda[3,1,1] + sublanda[3,1,2]
   + sublanda[3,1,3] = 1
 seg1: x[3,1,0] - 91.72843708990159 sublanda[3,1,0]
   - 89.28655452932583 sublanda[3,1,1] - 90.61952682882307 sublanda[3,1,2]
   - 93.4726352091137 sublanda[3,1,3] = 0
 seg1: x[3,1,1] - 39.34526001366195 sublanda[3,1,0]
   - 41.07560566579725 sublanda[3,1,1] - 43.7551711836155 sublanda[3,1,2]
   - 42.85147926386469 sublanda[3,1,3] = 0
 u0: landa[4,0] - landa[4,1] + min[4] - max[4] = 0
 u1: min[4] + max[4] = 4
 u2: 4 u[4] + max[4] <= 4
 u3: - 4 u[4] + min[4] <= 0
 R390: dc[4] = 6.106900021301416
 R391: landa[4,0] - sublanda[4,0,1] - 5 s[4,0,0] >= -4
 R392: landa[4,0] - sublanda[4,0,1] + 5 s[4,0,0] <= 6
 R393: landa[4,0] - sublanda[4,0,2] - 5 s[4,0,1] >= -3
 R394: landa[4,0] - sublanda[4,0,2] + 5 s[4,0,1] <= 7
 R395: landa[4,0] - sublanda[4,0,3] - 5 s[4,0,2] >= -2
 R396: landa[4,0] - sublanda[4,0,3] + 5 s[4,0,2] <= 8
 R397: landa[4,0] - sublanda[4,0,4] - 5 s[4,0,3] >= -1
 R398: landa[4,0] - sublanda[4,0,4] + 5 s[4,0,3] <= 9
 R399: sublanda[4,0,0] - s[4,0,0] <= 0
 R400: sublanda[4,0,4] - s[4,0,3] <= 0
 R401: sublanda[4,0,1] - s[4,0,0] - s[4,0,1] <= 0
 R402: sublanda[4,0,2] - s[4,0,1] - s[4,0,2] <= 0
 R403: sublanda[4,0,3] - s[4,0,2] - s[4,0,3] <= 0
 R404: s[4,0,0] + s[4,0,1] + s[4,0,2] + s[4,0,3] = 1
 R405: sublanda[4,0,0] + sublanda[4,0,1] + sublanda[4,0,2]
   + sublanda[4,0,3] + sublanda[4,0,4] = 1
 seg1: x[4,0,0] - 38.80375579456482 sublanda[4,0,0]
   - 37.46418639339682 sublanda[4,0,1] - 36.53389904760454 sublanda[4,0,2]
   - 37.58647210497148 sublanda[4,0,3] - 38.84148129118667 sublanda[4,0,4]
   = 0
 seg1: x[4,0,1] - 14.70106027229011 sublanda[4,0,0]
   - 13.9686375382491 sublanda[4,0,1] - 15.17919720061377 sublanda[4,0,2]
   - 16.28508110084513 sublanda[4,0,3] - 15.41568982851651 sublanda[4,0,4]
   = 0
 R408: landa[4,1] - sublanda[4,1,1] - 5 s[4,1,0] >= -4
 R409: landa[4,1] - sublanda[4,1,1] + 5 s[4,1,0] <= 6
 R410: landa[4,1] - sublanda[4,1,2] - 5 s[4,1,1] >= -3
 R411: landa[4,1] - sublanda[4,1,2] + 5 s[4,1,1] <= 7
 R412: landa[4,1] - sublanda[4,1,3] - 5 s[4,1,2] >= -2
 R413: landa[4,1] - sublanda[4,1,3] + 5 s[4,1,2] <= 8
 R414: landa[4,1] - sublanda[4,1,4] - 5 s[4,1,3] >= -1
 R415: landa[4,1] - sublanda[4,1,4] + 5 s[4,1,3] <= 9
 R416: sublanda[4,1,0] - s[4,1,0] <= 0
 R417: sublanda[4,1,4] - s[4,1,3] <= 0
 R418: sublanda[4,1,1] - s[4,1,0] - s[4,1,1] <= 0
 R419: sublanda[4,1,2] - s[4,1,1] - s[4,1,2] <= 0
 R420: sublanda[4,1,3] - s[4,1,2] - s[4,1,3] <= 0
 R421: s[4,1,0] + s[4,1,1] + s[4,1,2] + s[4,1,3] = 1
 R422: sublanda[4,1,0] + sublanda[4,1,1] + sublanda[4,1,2]
   + sublanda[4,1,3] + sublanda[4,1,4] = 1
 seg1: x[4,1,0] - 38.80375579456482 sublanda[4,1,0]
   - 37.46418639339682 sublanda[4,1,1] - 36.53389904760454 sublanda[4,1,2]
   - 37.58647210497148 sublanda[4,1,3] - 38.84148129118667 sublanda[4,1,4]
   = 0
 seg1: x[4,1,1] - 14.70106027229011 sublanda[4,1,0]
   - 13.9686375382491 sublanda[4,1,1] - 15.17919720061377 sublanda[4,1,2]
   - 16.28508110084513 sublanda[4,1,3] - 15.41568982851651 sublanda[4,1,4]
   = 0
 u0: landa[5,0] - landa[5,1] + min[5] - max[5] = 0
 u1: min[5] + max[5] = 2
 u2: 2 u[5] + max[5] <= 2
 u3: - 2 u[5] + min[5] <= 0
 R429: dc[5] = 5.676925961183521
 R430: landa[5,0] - sublanda[5,0,1] - 3 s[5,0,0] >= -2
 R431: landa[5,0] - sublanda[5,0,1] + 3 s[5,0,0] <= 4
 R432: landa[5,0] - sublanda[5,0,2] - 3 s[5,0,1] >= -1
 R433: landa[5,0] - sublanda[5,0,2] + 3 s[5,0,1] <= 5
 R434: sublanda[5,0,0] - s[5,0,0] <= 0
 R435: sublanda[5,0,2] - s[5,0,1] <= 0
 R436: sublanda[5,0,1] - s[5,0,0] - s[5,0,1] <= 0
 R437: s[5,0,0] + s[5,0,1] = 1
 R438: sublanda[5,0,0] + sublanda[5,0,1] + sublanda[5,0,2] = 1
 seg1: x[5,0,0] - 59.26321475567031 sublanda[5,0,0]
   - 58.34504209172439 sublanda[5,0,1] - 60.85712487439007 sublanda[5,0,2]
   = 0
 seg1: x[5,0,1] - 22.08309230245152 sublanda[5,0,0]
   - 24.76894990317653 sublanda[5,0,1] - 26.09043096063611 sublanda[5,0,2]
   = 0
 R441: landa[5,1] - sublanda[5,1,1] - 3 s[5,1,0] >= -2
 R442: landa[5,1] - sublanda[5,1,1] + 3 s[5,1,0] <= 4
 R443: landa[5,1] - sublanda[5,1,2] - 3 s[5,1,1] >= -1
 R444: landa[5,1] - sublanda[5,1,2] + 3 s[5,1,1] <= 5
 R445: sublanda[5,1,0] - s[5,1,0] <= 0
 R446: sublanda[5,1,2] - s[5,1,1] <= 0
 R447: sublanda[5,1,1] - s[5,1,0] - s[5,1,1] <= 0
 R448: s[5,1,0] + s[5,1,1] = 1
 R449: sublanda[5,1,0] + sublanda[5,1,1] + sublanda[5,1,2] = 1
 seg1: x[5,1,0] - 59.26321475567031 sublanda[5,1,0]
   - 58.34504209172439 sublanda[5,1,1] - 60.85712487439007 sublanda[5,1,2]
   = 0
 seg1: x[5,1,1] - 22.08309230245152 sublanda[5,1,0]
   - 24.76894990317653 sublanda[5,1,1] - 26.09043096063611 sublanda[5,1,2]
   = 0
 qc0: [ - dcc[0,1] ^2 + dif[0,1,0] ^2 + dif[0,1,1] ^2 ] <= 0
 qc1: [ - dcc[0,2] ^2 + dif[0,2,0] ^2 + dif[0,2,1] ^2 ] <= 0
 qc2: [ - dcc[0,3] ^2 + dif[0,3,0] ^2 + dif[0,3,1] ^2 ] <= 0
 qc3: [ - dcc[0,4] ^2 + dif[0,4,0] ^2 + dif[0,4,1] ^2 ] <= 0
 qc4: [ - dcc[0,5] ^2 + dif[0,5,0] ^2 + dif[0,5,1] ^2 ] <= 0
 qc5: [ - dcc[1,0] ^2 + dif[1,0,0] ^2 + dif[1,0,1] ^2 ] <= 0
 qc6: [ - dcc[1,2] ^2 + dif[1,2,0] ^2 + dif[1,2,1] ^2 ] <= 0
 qc7: [ - dcc[1,3] ^2 + dif[1,3,0] ^2 + dif[1,3,1] ^2 ] <= 0
 qc8: [ - dcc[1,4] ^2 + dif[1,4,0] ^2 + dif[1,4,1] ^2 ] <= 0
 qc9: [ - dcc[1,5] ^2 + dif[1,5,0] ^2 + dif[1,5,1] ^2 ] <= 0
 qc10: [ - dcc[2,0] ^2 + dif[2,0,0] ^2 + dif[2,0,1] ^2 ] <= 0
 qc11: [ - dcc[2,1] ^2 + dif[2,1,0] ^2 + dif[2,1,1] ^2 ] <= 0
 qc12: [ - dcc[2,3] ^2 + dif[2,3,0] ^2 + dif[2,3,1] ^2 ] <= 0
 qc13: [ - dcc[2,4] ^2 + dif[2,4,0] ^2 + dif[2,4,1] ^2 ] <= 0
 qc14: [ - dcc[2,5] ^2 + dif[2,5,0] ^2 + dif[2,5,1] ^2 ] <= 0
 qc15: [ - dcc[3,0] ^2 + dif[3,0,0] ^2 + dif[3,0,1] ^2 ] <= 0
 qc16: [ - dcc[3,1] ^2 + dif[3,1,0] ^2 + dif[3,1,1] ^2 ] <= 0
 qc17: [ - dcc[3,2] ^2 + dif[3,2,0] ^2 + dif[3,2,1] ^2 ] <= 0
 qc18: [ - dcc[3,4] ^2 + dif[3,4,0] ^2 + dif[3,4,1] ^2 ] <= 0
 qc19: [ - dcc[3,5] ^2 + dif[3,5,0] ^2 + dif[3,5,1] ^2 ] <= 0
 qc20: [ - dcc[4,0] ^2 + dif[4,0,0] ^2 + dif[4,0,1] ^2 ] <= 0
 qc21: [ - dcc[4,1] ^2 + dif[4,1,0] ^2 + dif[4,1,1] ^2 ] <= 0
 qc22: [ - dcc[4,2] ^2 + dif[4,2,0] ^2 + dif[4,2,1] ^2 ] <= 0
 qc23: [ - dcc[4,3] ^2 + dif[4,3,0] ^2 + dif[4,3,1] ^2 ] <= 0
 qc24: [ - dcc[4,5] ^2 + dif[4,5,0] ^2 + dif[4,5,1] ^2 ] <= 0
 qc25: [ - dcc[5,0] ^2 + dif[5,0,0] ^2 + dif[5,0,1] ^2 ] <= 0
 qc26: [ - dcc[5,1] ^2 + dif[5,1,0] ^2 + dif[5,1,1] ^2 ] <= 0
 qc27: [ - dcc[5,2] ^2 + dif[5,2,0] ^2 + dif[5,2,1] ^2 ] <= 0
 qc28: [ - dcc[5,3] ^2 + dif[5,3,0] ^2 + dif[5,3,1] ^2 ] <= 0
 qc29: [ - dcc[5,4] ^2 + dif[5,4,0] ^2 + dif[5,4,1] ^2 ] <= 0
Bounds
 sublanda[0,0,0] <= 1
 sublanda[0,1,0] <= 1
 sublanda[0,0,1] <= 1
 sublanda[0,1,1] <= 1
 sublanda[1,0,0] <= 1
 sublanda[1,1,0] <= 1
 sublanda[1,0,1] <= 1
 sublanda[1,1,1] <= 1
 sublanda[2,0,0] <= 1
 sublanda[2,1,0] <= 1
 sublanda[2,0,1] <= 1
 sublanda[2,1,1] <= 1
 sublanda[2,0,2] <= 1
 sublanda[2,1,2] <= 1
 sublanda[2,0,3] <= 1
 sublanda[2,1,3] <= 1
 sublanda[3,0,0] <= 1
 sublanda[3,1,0] <= 1
 sublanda[3,0,1] <= 1
 sublanda[3,1,1] <= 1
 sublanda[3,0,2] <= 1
 sublanda[3,1,2] <= 1
 sublanda[3,0,3] <= 1
 sublanda[3,1,3] <= 1
 sublanda[4,0,0] <= 1
 sublanda[4,1,0] <= 1
 sublanda[4,0,1] <= 1
 sublanda[4,1,1] <= 1
 sublanda[4,0,2] <= 1
 sublanda[4,1,2] <= 1
 sublanda[4,0,3] <= 1
 sublanda[4,1,3] <= 1
 sublanda[4,0,4] <= 1
 sublanda[4,1,4] <= 1
 sublanda[5,0,0] <= 1
 sublanda[5,1,0] <= 1
 sublanda[5,0,1] <= 1
 sublanda[5,1,1] <= 1
 sublanda[5,0,2] <= 1
 sublanda[5,1,2] <= 1
 sc[0] <= 5
 sc[1] <= 5
 sc[2] <= 5
 sc[3] <= 5
 sc[4] <= 5
 sc[5] <= 5
Binaries
 z[0,1] z[0,2] z[0,3] z[0,4] z[0,5] z[1,0] z[1,2] z[1,3] z[1,4] z[1,5]
 z[2,0] z[2,1] z[2,3] z[2,4] z[2,5] z[3,0] z[3,1] z[3,2] z[3,4] z[3,5]
 z[4,0] z[4,1] z[4,2] z[4,3] z[4,5] z[5,0] z[5,1] z[5,2] z[5,3] z[5,4]
 s[0,0,0] s[0,1,0] s[1,0,0] s[1,1,0] s[2,0,0] s[2,1,0] s[2,0,1] s[2,1,1]
 s[2,0,2] s[2,1,2] s[3,0,0] s[3,1,0] s[3,0,1] s[3,1,1] s[3,0,2] s[3,1,2]
 s[4,0,0] s[4,1,0] s[4,0,1] s[4,1,1] s[4,0,2] s[4,1,2] s[4,0,3] s[4,1,3]
 s[5,0,0] s[5,1,0] s[5,0,1] s[5,1,1] u[0] u[1] u[2] u[3] u[4] u[5]
End
